p cnf 38 111
a 32 12 0
e 1 2 3 4 5 6 7 8 9 10 11 13 14 15 16 17 18 19 20 21 22 23 24 25 26 27 28 29 30 31 33 34 35 36 37 38 0
1 2 -3 0
-1 -2 -3 0
1 -2 3 0
-1 2 3 0
-5 -4 0
-5 -4 0
4 5 0
-5 -1 -6 0
5 1 -6 0
-5 1 6 0
5 -1 6 0
7 5 0
7 6 0
-5 -6 -7 0
-8 -4 -9 0
8 4 -9 0
-8 4 9 0
8 -4 9 0
-10 1 0
-10 9 0
-1 -9 10 0
-1 -2 -11 0
1 2 -11 0
-1 2 11 0
1 -2 11 0
12 10 0
12 11 0
-10 -11 -12 0
14 12 0
14 13 0
-12 -13 -14 0
15 7 0
15 -14 0
-7 14 -15 0
-3 15 -16 0
3 -15 -16 0
-3 -15 16 0
3 15 16 0
17 -18 0
-17 -18 0
-16 -18 -19 0
16 18 -19 0
-16 18 19 0
16 -18 19 0
21 -9 0
21 -20 0
9 20 -21 0
-21 22 0
21 22 0
-23 22 0
-23 -9 0
-22 9 23 0
24 -23 0
24 12 0
23 -12 -24 0
19 24 -25 0
-19 -24 -25 0
19 -24 25 0
-19 24 25 0
26 -17 0
26 -2 0
17 2 -26 0
27 -5 0
27 -17 0
5 17 -27 0
-26 27 -28 0
26 -27 -28 0
-26 -27 28 0
26 27 28 0
29 -5 0
29 -22 0
5 22 -29 0
-6 -4 -31 0
6 4 -31 0
-6 4 31 0
6 -4 31 0
-32 4 0
-32 31 0
-4 -31 32 0
-30 -32 -33 0
30 32 -33 0
-30 32 33 0
30 -32 33 0
-34 -29 0
-34 33 0
29 -33 34 0
21 23 -35 0
-21 -23 -35 0
21 -23 35 0
-21 23 35 0
-36 34 0
-36 35 0
-34 -35 36 0
-37 -28 0
-37 -36 0
28 36 37 0
25 -37 -38 0
-25 37 -38 0
25 37 38 0
-25 -37 38 0
7 -8 -10 -18 0
-20 -26 -30 15 -14 0
-27 36 24 14 6 30 5 33 0
17 -7 -37 -35 0
-14 19 -17 6 -37 -32 0
-8 37 23 -5 30 31 0
34 25 -15 26 0
11 -19 1 -21 -9 18 33 6 0
-8 37 -29 32 -20 5 31 0
-26 -28 3 -32 6 11 -25 0
38 0
